StudentsNr = 10;
InstructorsNr = 40;
DaysNr = 1;
SlotsPerDay = 60;
AvailabilitySlotsLenght = 3;
RoomNr = 1;
ProgrammNr = 2;
DegreeNr = 3;
RolesNr = 1;
CoursesNr = 10;
InstructorsProgramm = [{1, 2}, {2}, {1, 2}, {1}, {1, 2}, {1, 2}, {1}, {1}, {1}, {1, 2}, {2}, {1, 2}, {1, 2}, {1, 2}, {1}, {1, 2}, {1}, {1, 2}, {1, 2}, {1, 2}, {1}, {2}, {1}, {1, 2}, {1}, {2}, {2}, {1}, {2}, {1, 2}, {1, 2}, {1}, {1, 2}, {1}, {2}, {1}, {1}, {1}, {1, 2}, {1, 2}];
InstructorRolesPerProgramm = [|{1, 3, 4, 12, 13, 15, 16, 18, 19, 24, 25, 28, 30, 32, 33, 39, 40}|{1, 2, 3, 12, 13, 16, 18, 19, 24, 26, 29, 30, 33, 35, 39, 40}|];
InstructorsAvailability = [|0, 1, 1, 1, 0, 1, 1, 0, 0, 1, 1, 1, 1, 1, 1, 1, 1, 1, 1, 1, |1, 1, 1, 0, 1, 1, 1, 0, 1, 1, 0, 1, 1, 1, 1, 1, 1, 1, 1, 1, |0, 1, 1, 0, 1, 0, 1, 0, 0, 1, 1, 1, 1, 1, 1, 1, 1, 1, 1, 1, |0, 1, 1, 0, 0, 0, 1, 0, 1, 1, 0, 0, 1, 1, 1, 0, 1, 1, 1, 1, |0, 1, 1, 1, 0, 1, 1, 1, 1, 1, 1, 1, 1, 1, 1, 1, 0, 1, 1, 1, |1, 0, 0, 1, 1, 1, 0, 1, 0, 1, 1, 0, 0, 1, 1, 0, 1, 1, 1, 1, |0, 0, 1, 1, 1, 1, 1, 1, 1, 1, 1, 1, 1, 1, 1, 1, 1, 1, 0, 1, |1, 1, 1, 1, 1, 1, 1, 1, 1, 0, 0, 0, 0, 0, 0, 1, 1, 1, 1, 1, |1, 1, 1, 1, 1, 1, 1, 1, 1, 1, 1, 1, 1, 1, 1, 1, 1, 1, 1, 1, |0, 1, 1, 1, 1, 1, 1, 1, 1, 1, 1, 1, 1, 0, 0, 0, 1, 1, 1, 0, |1, 1, 1, 1, 1, 1, 1, 1, 1, 1, 0, 0, 0, 0, 1, 0, 0, 1, 1, 1, |0, 1, 1, 1, 1, 1, 1, 1, 1, 1, 1, 1, 1, 0, 1, 1, 1, 1, 1, 1, |0, 1, 1, 1, 1, 0, 1, 1, 1, 1, 1, 1, 1, 1, 1, 1, 1, 1, 1, 1, |1, 0, 0, 1, 0, 1, 1, 1, 1, 1, 1, 1, 1, 0, 0, 0, 0, 1, 0, 0, |0, 0, 0, 1, 1, 1, 1, 1, 1, 1, 1, 1, 1, 1, 1, 1, 1, 1, 1, 1, |1, 1, 0, 1, 1, 1, 1, 1, 1, 1, 0, 1, 1, 1, 1, 1, 1, 1, 1, 1, |1, 1, 1, 1, 1, 1, 1, 1, 1, 1, 1, 1, 1, 1, 0, 1, 1, 1, 1, 1, |1, 1, 1, 1, 1, 1, 1, 1, 1, 1, 1, 1, 1, 1, 1, 1, 1, 1, 1, 1, |1, 1, 1, 1, 1, 1, 1, 1, 1, 1, 1, 1, 1, 1, 1, 1, 1, 1, 1, 0, |1, 1, 1, 1, 1, 0, 1, 1, 1, 1, 1, 1, 1, 1, 1, 1, 1, 1, 1, 1, |0, 1, 1, 0, 1, 0, 1, 1, 1, 1, 1, 1, 1, 1, 1, 1, 1, 0, 1, 0, |1, 1, 1, 1, 1, 1, 1, 1, 1, 1, 1, 1, 1, 1, 1, 1, 1, 1, 1, 0, |1, 1, 1, 0, 1, 1, 1, 1, 1, 1, 0, 1, 1, 1, 1, 0, 1, 1, 0, 0, |0, 1, 1, 1, 1, 1, 1, 1, 1, 1, 0, 1, 1, 1, 1, 1, 1, 1, 1, 1, |0, 0, 0, 0, 1, 1, 1, 0, 1, 1, 0, 1, 1, 1, 1, 1, 1, 0, 1, 0, |0, 1, 1, 1, 1, 1, 1, 0, 0, 0, 1, 1, 0, 1, 1, 0, 0, 0, 0, 1, |1, 1, 1, 1, 1, 1, 1, 1, 1, 1, 1, 1, 1, 1, 1, 0, 1, 1, 1, 1, |1, 1, 0, 0, 1, 1, 0, 1, 0, 0, 0, 0, 0, 0, 0, 1, 1, 1, 1, 1, |0, 1, 1, 1, 1, 1, 1, 1, 1, 1, 1, 1, 1, 1, 1, 1, 1, 1, 1, 1, |1, 0, 0, 1, 1, 1, 1, 1, 0, 1, 0, 0, 0, 1, 1, 1, 1, 1, 1, 1, |1, 1, 1, 1, 0, 1, 0, 0, 1, 1, 1, 1, 1, 1, 1, 1, 1, 1, 1, 1, |0, 0, 1, 1, 1, 1, 1, 1, 0, 1, 1, 1, 1, 1, 1, 1, 1, 1, 1, 1, |1, 1, 1, 1, 0, 1, 1, 0, 0, 0, 1, 0, 1, 0, 0, 1, 1, 1, 1, 1, |0, 1, 1, 1, 1, 1, 1, 0, 1, 1, 1, 1, 0, 1, 1, 0, 0, 1, 1, 1, |0, 1, 1, 0, 1, 1, 0, 1, 1, 1, 1, 1, 1, 1, 1, 1, 0, 1, 1, 1, |0, 1, 1, 0, 0, 0, 1, 1, 1, 1, 0, 1, 1, 1, 1, 1, 1, 1, 1, 1, |1, 1, 0, 1, 1, 1, 0, 0, 1, 1, 1, 0, 1, 1, 1, 1, 1, 1, 1, 1, |0, 1, 1, 1, 1, 1, 1, 0, 1, 1, 1, 1, 0, 1, 1, 1, 1, 1, 0, 1, |0, 1, 1, 1, 1, 1, 1, 1, 1, 1, 1, 0, 1, 1, 1, 1, 1, 1, 1, 1, |1, 1, 0, 1, 1, 1, 1, 1, 1, 0, 1, 1, 1, 1, 1, 1, 0, 1, 1, 0|];
StudentsProgramm = [2, 2, 2, 2, 1, 2, 2, 2, 1, 1];
StudentsDegree = [3, 2, 1, 2, 3, 2, 1, 3, 2, 1];
StudentsSupervisorId = [22, 22, 40, 22, 10, 18, 29, 30, 37, 33];
StudentsCourseIds = [{1, 2, 3, 7}, {5}, {1, 2, 3, 4, 5, 6, 9, 10}, {4}, {2, 4, 5, 10}, {2}, {2, 3, 4, 5, 6, 7, 8, 10}, {1, 3, 5, 9}, {8}, {2, 3, 4, 5, 6, 7, 9, 10}];
StudentsAvailability = [|1, 1, 1, 0, 0, 0, 0, 0, 1, 1, 1, 1, 0, 1, 1, 1, 1, 1, 1, 1, |1, 1, 1, 1, 1, 1, 1, 1, 1, 1, 0, 0, 1, 1, 1, 1, 1, 1, 1, 1, |1, 1, 1, 1, 1, 1, 1, 0, 0, 1, 1, 1, 1, 1, 1, 1, 1, 1, 1, 1, |1, 1, 1, 1, 1, 1, 1, 1, 1, 1, 1, 1, 1, 0, 0, 1, 1, 1, 1, 1, |1, 1, 1, 1, 1, 1, 1, 1, 1, 0, 0, 0, 0, 0, 0, 0, 0, 0, 0, 0, |1, 1, 1, 1, 1, 0, 0, 0, 0, 0, 0, 0, 0, 1, 1, 1, 1, 1, 0, 0, |1, 1, 1, 0, 0, 1, 1, 1, 1, 1, 1, 1, 0, 0, 1, 1, 1, 0, 1, 1, |0, 0, 1, 1, 1, 1, 1, 1, 1, 1, 1, 1, 1, 1, 1, 1, 0, 0, 1, 0, |1, 1, 1, 1, 1, 1, 1, 1, 1, 1, 1, 1, 1, 1, 1, 1, 1, 1, 0, 0, |0, 1, 1, 1, 1, 1, 1, 1, 1, 1, 1, 1, 1, 1, 1, 1, 1, 1, 1, 1|];
TheoryticalMinCard = [0, 1, 0, 0, 0, 0, 0, 0, 1, 0];
CoursesInstructorIds = [{2, 3, 4, 6, 7, 8, 10, 14, 16, 18, 19, 22, 24, 27, 32, 34, 36, 38, 39, 40}, {2, 7, 19}, {13, 14, 16, 20, 23, 24, 25, 28, 33, 37, 39}, {1, 2, 5, 6, 8, 10, 12, 16, 17, 19, 20, 21, 22, 23, 24, 25, 26, 27, 28, 29, 30, 31, 33, 34, 36, 37, 39}, {4, 11, 24}, {1, 2, 4, 6, 7, 8, 13, 15, 16, 17, 19, 21, 24, 28, 30, 32, 34, 37, 39}, {1, 2, 5, 6, 7, 8, 9, 13, 15, 16, 18, 19, 22, 23, 25, 32, 33, 34, 36, 38, 39}, {4, 6, 8, 15, 16, 18, 19, 20, 34, 36, 38, 40}, {3, 4, 7, 8, 9, 10, 12, 14, 15, 17, 21, 23, 24, 25, 27, 29, 30, 31, 32, 33, 36}, {1, 2, 7, 10, 11, 12, 13, 14, 16, 19, 20, 21, 23, 24, 26, 27, 29, 30, 32, 33, 34, 35, 40}];
RolesDemands = [9];
RolesContinuity = [];
ExamLen = [2, 2, 1, 2, 2, 2, 1, 2, 2, 1];
LunchTsMinLen = 0;
LunchStarts = [23..33];
SupervisorAvailable = 0;
OptimalLunchLenght = [3, 0];
OptimalStartTs = [1, 0];
OptimalFinishTs = [1, 60];
MinimizeRooms = 0;
RolesSoftContinuity = [|1|0|];
SameDegreeInRoom = 20;
Mergeability = 2;
